6 6 1.0
6 1 3 1 1 1 3 1 2 6 1 4 7 1 6 3 1 5 6 
6 1 2 8 1 3 5 1 5 10 1 6 10 1 1 10 1 4 4 
6 1 3 5 1 4 4 1 6 8 1 1 9 1 2 1 1 5 7 
6 1 2 5 1 1 5 1 3 5 1 4 3 1 5 8 1 6 9 
6 1 3 9 1 2 3 1 5 5 1 6 4 1 1 3 1 4 1 
6 1 2 3 1 4 3 1 6 9 1 1 10 1 5 4 1 3 1 
1 6 14 26 
1 17 4 22 
1 8 7 19 
1 1 5 17 
1 6 7 33 
1 23 7 36 
